assets/logs/9_8x8_clingo/9_8x8_clingo.solution.log

---------------------------------
| 12| 55|  0| 35| 16| 38| 32|  0|
---------------------------------
|  3| 33| 14|  0| 54| 37| 18| 36|
---------------------------------
| 53| 10|  1| 27| 40| 34| 52| 30|
---------------------------------
| 31|  5| 42|  8| 39| 56|  0| 20|
---------------------------------
| 44| 51| 29|  7| 25| 50| 28|  0|
---------------------------------
| 15|  9| 19| 48|  6| 41| 22|  0|
---------------------------------
| 49| 46| 13|  0| 45| 23|  4| 26|
---------------------------------
| 11| 17| 47| 21|  2| 24| 43|  0|
---------------------------------

| n = 8 | k = 8 | coverage = 63, 98.4375%
 Time 299.968
 Name 9_8x8_clingo

